c An instance of conditional planning (by rintanen@informatik.uni-freiburg.de)
p cnf 214  1637 
e 46 47 48 49 50 51 52 53 54 55 56 57 58 59 60 61 62 63 64 65 66 67 68 69 70 71 72 73 74 75 76 77 78 79 80 81 82 83 84 85 86 87 88 89 90 91 92 93 94 95 96 97 98 99 100 101 102 103 104 105 106 107 108 109 110 111 112 113 114 115 116 117 118 119 120 121 122 123 124 125 126 127 128 129 130 131 132 133 134 135 136 137 138 139 140 141 142 143 144 145 146 147 148 149 150 151 152 153 154 155 156 157 158 159 160 161 162 163 164 165 166 167 168 169 170 171 172 173 174 175 176 177 178 179 180 181 182 183 184 185 0
r 0.5 196 195 194 193 192 197 0
e 1 2 3 4 5 6 7 8 9 10 11 12 13 14 15 16 17 18 19 20 21 22 23 24 25 26 27 28 29 30 31 32 33 34 35 36 37 38 39 40 41 42 43 44 45 186 187 188 189 190 191 198 199 200 201 202 203 204 205 206 207 208 209 210 211 212 213 214 0
-193 -194 -195 -196 -197 192 198 0
-193 -194 -195 -196 -197 192 199 0
-193 -194 -195 -196 -197 192 200 0
-193 -194 -195 -196 -197 192 201 0
-193 -194 -195 -196 -197 192 202 0
-193 -194 -195 -196 -197 -203 192 0
-193 -194 -195 -196 -198 192 197 0
-193 -194 -195 -196 192 197 199 0
-193 -194 -195 -196 192 197 200 0
-193 -194 -195 -196 192 197 201 0
-193 -194 -195 -196 192 197 202 0
-193 -194 -195 -196 192 197 203 0
-192 -194 -195 -196 -197 -198 193 0
-192 -194 -195 -196 -197 193 199 0
-192 -194 -195 -196 -197 193 200 0
-192 -194 -195 -196 -197 193 201 0
-192 -194 -195 -196 -197 193 202 0
-192 -194 -195 -196 -197 -203 193 0
-192 -194 -195 -196 193 197 198 0
-192 -194 -195 -196 -199 193 197 0
-192 -194 -195 -196 193 197 200 0
-192 -194 -195 -196 193 197 201 0
-192 -194 -195 -196 193 197 202 0
-192 -194 -195 -196 193 197 203 0
-194 -195 -196 -197 192 193 198 0
-194 -195 -196 -197 -199 192 193 0
-194 -195 -196 -197 192 193 200 0
-194 -195 -196 -197 192 193 201 0
-194 -195 -196 -197 192 193 202 0
-194 -195 -196 -197 -203 192 193 0
-194 -195 -196 -198 192 193 197 0
-194 -195 -196 -199 192 193 197 0
-194 -195 -196 192 193 197 200 0
-194 -195 -196 192 193 197 201 0
-194 -195 -196 192 193 197 202 0
-194 -195 -196 192 193 197 203 0
-192 -193 -195 -196 -197 -198 194 0
-192 -193 -195 -196 -197 -199 194 0
-192 -193 -195 -196 -197 194 200 0
-192 -193 -195 -196 -197 194 201 0
-192 -193 -195 -196 -197 194 202 0
-192 -193 -195 -196 -197 -203 194 0
-192 -193 -195 -196 194 197 198 0
-192 -193 -195 -196 194 197 199 0
-192 -193 -195 -196 -200 194 197 0
-192 -193 -195 -196 194 197 201 0
-192 -193 -195 -196 194 197 202 0
-192 -193 -195 -196 194 197 203 0
-193 -195 -196 -197 192 194 198 0
-193 -195 -196 -197 192 194 199 0
-193 -195 -196 -197 -200 192 194 0
-193 -195 -196 -197 192 194 201 0
-193 -195 -196 -197 192 194 202 0
-193 -195 -196 -197 -203 192 194 0
-193 -195 -196 -198 192 194 197 0
-193 -195 -196 192 194 197 199 0
-193 -195 -196 -200 192 194 197 0
-193 -195 -196 192 194 197 201 0
-193 -195 -196 192 194 197 202 0
-193 -195 -196 192 194 197 203 0
-192 -195 -196 -197 -198 193 194 0
-192 -195 -196 -197 193 194 199 0
-192 -195 -196 -197 -200 193 194 0
-192 -195 -196 -197 193 194 201 0
-192 -195 -196 -197 193 194 202 0
-192 -195 -196 -197 -203 193 194 0
-192 -195 -196 193 194 197 198 0
-192 -195 -196 -199 193 194 197 0
-192 -195 -196 -200 193 194 197 0
-192 -195 -196 193 194 197 201 0
-192 -195 -196 193 194 197 202 0
-192 -195 -196 193 194 197 203 0
-195 -196 -197 192 193 194 198 0
-195 -196 -197 -199 192 193 194 0
-195 -196 -197 -200 192 193 194 0
-195 -196 -197 192 193 194 201 0
-195 -196 -197 192 193 194 202 0
-195 -196 -197 -203 192 193 194 0
-195 -196 -198 192 193 194 197 0
-195 -196 -199 192 193 194 197 0
-195 -196 -200 192 193 194 197 0
-195 -196 192 193 194 197 201 0
-195 -196 192 193 194 197 202 0
-195 -196 192 193 194 197 203 0
-192 -193 -194 -196 -197 -198 195 0
-192 -193 -194 -196 -197 -199 195 0
-192 -193 -194 -196 -197 -200 195 0
-192 -193 -194 -196 -197 195 201 0
-192 -193 -194 -196 -197 195 202 0
-192 -193 -194 -196 -197 -203 195 0
-192 -193 -194 -196 195 197 198 0
-192 -193 -194 -196 195 197 199 0
-192 -193 -194 -196 195 197 200 0
-192 -193 -194 -196 -201 195 197 0
-192 -193 -194 -196 195 197 202 0
-192 -193 -194 -196 195 197 203 0
-193 -194 -196 -197 192 195 198 0
-193 -194 -196 -197 192 195 199 0
-193 -194 -196 -197 192 195 200 0
-193 -194 -196 -197 -201 192 195 0
-193 -194 -196 -197 192 195 202 0
-193 -194 -196 -197 -203 192 195 0
-193 -194 -196 -198 192 195 197 0
-193 -194 -196 192 195 197 199 0
-193 -194 -196 192 195 197 200 0
-193 -194 -196 -201 192 195 197 0
-193 -194 -196 192 195 197 202 0
-193 -194 -196 192 195 197 203 0
-192 -194 -196 -197 -198 193 195 0
-192 -194 -196 -197 193 195 199 0
-192 -194 -196 -197 193 195 200 0
-192 -194 -196 -197 -201 193 195 0
-192 -194 -196 -197 193 195 202 0
-192 -194 -196 -197 -203 193 195 0
-192 -194 -196 193 195 197 198 0
-192 -194 -196 -199 193 195 197 0
-192 -194 -196 193 195 197 200 0
-192 -194 -196 -201 193 195 197 0
-192 -194 -196 193 195 197 202 0
-192 -194 -196 193 195 197 203 0
-194 -196 -197 192 193 195 198 0
-194 -196 -197 -199 192 193 195 0
-194 -196 -197 192 193 195 200 0
-194 -196 -197 -201 192 193 195 0
-194 -196 -197 192 193 195 202 0
-194 -196 -197 -203 192 193 195 0
-194 -196 -198 192 193 195 197 0
-194 -196 -199 192 193 195 197 0
-194 -196 192 193 195 197 200 0
-194 -196 -201 192 193 195 197 0
-194 -196 192 193 195 197 202 0
-194 -196 192 193 195 197 203 0
-192 -193 -196 -197 -198 194 195 0
-192 -193 -196 -197 -199 194 195 0
-192 -193 -196 -197 194 195 200 0
-192 -193 -196 -197 -201 194 195 0
-192 -193 -196 -197 194 195 202 0
-192 -193 -196 -197 -203 194 195 0
-192 -193 -196 194 195 197 198 0
-192 -193 -196 194 195 197 199 0
-192 -193 -196 -200 194 195 197 0
-192 -193 -196 -201 194 195 197 0
-192 -193 -196 194 195 197 202 0
-192 -193 -196 194 195 197 203 0
-193 -196 -197 192 194 195 198 0
-193 -196 -197 192 194 195 199 0
-193 -196 -197 -200 192 194 195 0
-193 -196 -197 -201 192 194 195 0
-193 -196 -197 192 194 195 202 0
-193 -196 -197 -203 192 194 195 0
-193 -196 -198 192 194 195 197 0
-193 -196 192 194 195 197 199 0
-193 -196 -200 192 194 195 197 0
-193 -196 -201 192 194 195 197 0
-193 -196 192 194 195 197 202 0
-193 -196 192 194 195 197 203 0
-192 -196 -197 -198 193 194 195 0
-192 -196 -197 193 194 195 199 0
-192 -196 -197 -200 193 194 195 0
-192 -196 -197 -201 193 194 195 0
-192 -196 -197 193 194 195 202 0
-192 -196 -197 -203 193 194 195 0
-192 -196 193 194 195 197 198 0
-192 -196 -199 193 194 195 197 0
-192 -196 -200 193 194 195 197 0
-192 -196 -201 193 194 195 197 0
-192 -196 193 194 195 197 202 0
-192 -196 193 194 195 197 203 0
-196 -197 192 193 194 195 198 0
-196 -197 -199 192 193 194 195 0
-196 -197 -200 192 193 194 195 0
-196 -197 -201 192 193 194 195 0
-196 -197 192 193 194 195 202 0
-196 -197 -203 192 193 194 195 0
-196 -198 192 193 194 195 197 0
-196 -199 192 193 194 195 197 0
-196 -200 192 193 194 195 197 0
-196 -201 192 193 194 195 197 0
-196 192 193 194 195 197 202 0
-196 192 193 194 195 197 203 0
-192 -193 -194 -195 -197 -198 196 0
-192 -193 -194 -195 -197 -199 196 0
-192 -193 -194 -195 -197 -200 196 0
-192 -193 -194 -195 -197 -201 196 0
-192 -193 -194 -195 -197 196 202 0
-192 -193 -194 -195 -197 -203 196 0
-192 -193 -194 -195 196 197 198 0
-192 -193 -194 -195 196 197 199 0
-192 -193 -194 -195 196 197 200 0
-192 -193 -194 -195 196 197 201 0
-192 -193 -194 -195 -202 196 197 0
-192 -193 -194 -195 196 197 203 0
-193 -194 -195 -197 192 196 198 0
-193 -194 -195 -197 192 196 199 0
-193 -194 -195 -197 192 196 200 0
-193 -194 -195 -197 192 196 201 0
-193 -194 -195 -197 -202 192 196 0
-193 -194 -195 -197 -203 192 196 0
-193 -194 -195 -198 192 196 197 0
-193 -194 -195 192 196 197 199 0
-193 -194 -195 192 196 197 200 0
-193 -194 -195 192 196 197 201 0
-193 -194 -195 -202 192 196 197 0
-193 -194 -195 192 196 197 203 0
-192 -194 -195 -197 -198 193 196 0
-192 -194 -195 -197 193 196 199 0
-192 -194 -195 -197 193 196 200 0
-192 -194 -195 -197 193 196 201 0
-192 -194 -195 -197 -202 193 196 0
-192 -194 -195 -197 -203 193 196 0
-192 -194 -195 193 196 197 198 0
-192 -194 -195 -199 193 196 197 0
-192 -194 -195 193 196 197 200 0
-192 -194 -195 193 196 197 201 0
-192 -194 -195 -202 193 196 197 0
-192 -194 -195 193 196 197 203 0
-194 -195 -197 192 193 196 198 0
-194 -195 -197 -199 192 193 196 0
-194 -195 -197 192 193 196 200 0
-194 -195 -197 192 193 196 201 0
-194 -195 -197 -202 192 193 196 0
-194 -195 -197 -203 192 193 196 0
-194 -195 -198 192 193 196 197 0
-194 -195 -199 192 193 196 197 0
-194 -195 192 193 196 197 200 0
-194 -195 192 193 196 197 201 0
-194 -195 -202 192 193 196 197 0
-194 -195 192 193 196 197 203 0
-192 -193 -195 -197 -198 194 196 0
-192 -193 -195 -197 -199 194 196 0
-192 -193 -195 -197 194 196 200 0
-192 -193 -195 -197 194 196 201 0
-192 -193 -195 -197 -202 194 196 0
-192 -193 -195 -197 -203 194 196 0
-192 -193 -195 194 196 197 198 0
-192 -193 -195 194 196 197 199 0
-192 -193 -195 -200 194 196 197 0
-192 -193 -195 194 196 197 201 0
-192 -193 -195 -202 194 196 197 0
-192 -193 -195 194 196 197 203 0
-193 -195 -197 192 194 196 198 0
-193 -195 -197 192 194 196 199 0
-193 -195 -197 -200 192 194 196 0
-193 -195 -197 192 194 196 201 0
-193 -195 -197 -202 192 194 196 0
-193 -195 -197 -203 192 194 196 0
-193 -195 -198 192 194 196 197 0
-193 -195 192 194 196 197 199 0
-193 -195 -200 192 194 196 197 0
-193 -195 192 194 196 197 201 0
-193 -195 -202 192 194 196 197 0
-193 -195 192 194 196 197 203 0
-192 -195 -197 -198 193 194 196 0
-192 -195 -197 193 194 196 199 0
-192 -195 -197 -200 193 194 196 0
-192 -195 -197 193 194 196 201 0
-192 -195 -197 -202 193 194 196 0
-192 -195 -197 -203 193 194 196 0
-192 -195 193 194 196 197 198 0
-192 -195 -199 193 194 196 197 0
-192 -195 -200 193 194 196 197 0
-192 -195 193 194 196 197 201 0
-192 -195 -202 193 194 196 197 0
-192 -195 193 194 196 197 203 0
-195 -197 192 193 194 196 198 0
-195 -197 -199 192 193 194 196 0
-195 -197 -200 192 193 194 196 0
-195 -197 192 193 194 196 201 0
-195 -197 -202 192 193 194 196 0
-195 -197 -203 192 193 194 196 0
-195 -198 192 193 194 196 197 0
-195 -199 192 193 194 196 197 0
-195 -200 192 193 194 196 197 0
-195 192 193 194 196 197 201 0
-195 -202 192 193 194 196 197 0
-195 192 193 194 196 197 203 0
-192 -193 -194 -197 -198 195 196 0
-192 -193 -194 -197 -199 195 196 0
-192 -193 -194 -197 -200 195 196 0
-192 -193 -194 -197 195 196 201 0
-192 -193 -194 -197 -202 195 196 0
-192 -193 -194 -197 -203 195 196 0
-192 -193 -194 195 196 197 198 0
-192 -193 -194 195 196 197 199 0
-192 -193 -194 195 196 197 200 0
-192 -193 -194 -201 195 196 197 0
-192 -193 -194 -202 195 196 197 0
-192 -193 -194 195 196 197 203 0
-193 -194 -197 192 195 196 198 0
-193 -194 -197 192 195 196 199 0
-193 -194 -197 192 195 196 200 0
-193 -194 -197 -201 192 195 196 0
-193 -194 -197 -202 192 195 196 0
-193 -194 -197 -203 192 195 196 0
-193 -194 -198 192 195 196 197 0
-193 -194 192 195 196 197 199 0
-193 -194 192 195 196 197 200 0
-193 -194 -201 192 195 196 197 0
-193 -194 -202 192 195 196 197 0
-193 -194 192 195 196 197 203 0
-192 -194 -197 -198 193 195 196 0
-192 -194 -197 193 195 196 199 0
-192 -194 -197 193 195 196 200 0
-192 -194 -197 -201 193 195 196 0
-192 -194 -197 -202 193 195 196 0
-192 -194 -197 -203 193 195 196 0
-192 -194 193 195 196 197 198 0
-192 -194 -199 193 195 196 197 0
-192 -194 193 195 196 197 200 0
-192 -194 -201 193 195 196 197 0
-192 -194 -202 193 195 196 197 0
-192 -194 193 195 196 197 203 0
-194 -197 192 193 195 196 198 0
-194 -197 -199 192 193 195 196 0
-194 -197 192 193 195 196 200 0
-194 -197 -201 192 193 195 196 0
-194 -197 -202 192 193 195 196 0
-194 -197 -203 192 193 195 196 0
-194 -198 192 193 195 196 197 0
-194 -199 192 193 195 196 197 0
-194 192 193 195 196 197 200 0
-194 -201 192 193 195 196 197 0
-194 -202 192 193 195 196 197 0
-194 192 193 195 196 197 203 0
-192 -193 -197 -198 194 195 196 0
-192 -193 -197 -199 194 195 196 0
-192 -193 -197 194 195 196 200 0
-192 -193 -197 -201 194 195 196 0
-192 -193 -197 -202 194 195 196 0
-192 -193 -197 -203 194 195 196 0
-192 -193 194 195 196 197 198 0
-192 -193 194 195 196 197 199 0
-192 -193 -200 194 195 196 197 0
-192 -193 -201 194 195 196 197 0
-192 -193 -202 194 195 196 197 0
-192 -193 194 195 196 197 203 0
-193 -197 192 194 195 196 198 0
-193 -197 192 194 195 196 199 0
-193 -197 -200 192 194 195 196 0
-193 -197 -201 192 194 195 196 0
-193 -197 -202 192 194 195 196 0
-193 -197 -203 192 194 195 196 0
-193 -198 192 194 195 196 197 0
-193 192 194 195 196 197 199 0
-193 -200 192 194 195 196 197 0
-193 -201 192 194 195 196 197 0
-193 -202 192 194 195 196 197 0
-193 192 194 195 196 197 203 0
-192 -197 -198 193 194 195 196 0
-192 -197 193 194 195 196 199 0
-192 -197 -200 193 194 195 196 0
-192 -197 -201 193 194 195 196 0
-192 -197 -202 193 194 195 196 0
-192 -197 -203 193 194 195 196 0
-192 193 194 195 196 197 198 0
-192 -199 193 194 195 196 197 0
-192 -200 193 194 195 196 197 0
-192 -201 193 194 195 196 197 0
-192 -202 193 194 195 196 197 0
-192 193 194 195 196 197 203 0
-197 192 193 194 195 196 198 0
-197 -199 192 193 194 195 196 0
-197 -200 192 193 194 195 196 0
-197 -201 192 193 194 195 196 0
-197 -202 192 193 194 195 196 0
-197 -203 192 193 194 195 196 0
-198 192 193 194 195 196 197 0
-199 192 193 194 195 196 197 0
-200 192 193 194 195 196 197 0
-201 192 193 194 195 196 197 0
-202 192 193 194 195 196 197 0
192 193 194 195 196 197 203 0
-192 -193 -194 -195 -196 197 198 0
-192 -193 -194 -195 -196 197 199 0
-192 -193 -194 -195 -196 197 200 0
-192 -193 -194 -195 -196 197 201 0
-192 -193 -194 -195 -196 197 202 0
-192 -193 -194 -195 -196 197 203 0
-204 0
-205 0
-206 0
-207 0
-208 0
-209 0
-210 0
-211 0
-212 0
-213 0
-214 0
-46 -214 0
-46 -208 0
-4 -47 0
-1 -47 0
-5 -48 0
-2 -48 0
-50 -209 0
-50 -214 0
-9 -51 0
-4 -51 0
-10 -52 0
-5 -52 0
-54 -210 0
-54 -214 0
-14 -55 0
-4 -55 0
-15 -56 0
-5 -56 0
-58 -211 0
-58 -214 0
-19 -59 0
-4 -59 0
-20 -60 0
-5 -60 0
-62 -212 0
-62 -214 0
-24 -63 0
-4 -63 0
-25 -64 0
-5 -64 0
-66 -213 0
-66 -214 0
-29 -68 0
-4 -68 0
-30 -70 0
-5 -70 0
-74 -204 0
-74 -208 0
-34 -75 0
-1 -75 0
-35 -76 0
-2 -76 0
-78 -204 0
-78 -209 0
-34 -79 0
-9 -79 0
-35 -80 0
-10 -80 0
-82 -204 0
-82 -210 0
-34 -83 0
-14 -83 0
-35 -84 0
-15 -84 0
-86 -204 0
-86 -211 0
-34 -87 0
-19 -87 0
-35 -88 0
-20 -88 0
-90 -204 0
-90 -212 0
-34 -91 0
-24 -91 0
-35 -92 0
-25 -92 0
-94 -204 0
-94 -213 0
-34 -96 0
-29 -96 0
-35 -98 0
-30 -98 0
-102 -205 0
-102 -208 0
-37 -103 0
-1 -103 0
-38 -104 0
-2 -104 0
-106 -205 0
-106 -209 0
-37 -107 0
-9 -107 0
-38 -108 0
-10 -108 0
-110 -205 0
-110 -210 0
-37 -111 0
-14 -111 0
-38 -112 0
-15 -112 0
-114 -205 0
-114 -211 0
-37 -115 0
-19 -115 0
-38 -116 0
-20 -116 0
-118 -205 0
-118 -212 0
-37 -119 0
-24 -119 0
-38 -120 0
-25 -120 0
-122 -205 0
-122 -213 0
-37 -124 0
-29 -124 0
-38 -126 0
-30 -126 0
-130 -206 0
-130 -208 0
-40 -131 0
-1 -131 0
-41 -132 0
-2 -132 0
-134 -206 0
-134 -209 0
-40 -135 0
-9 -135 0
-41 -136 0
-10 -136 0
-138 -206 0
-138 -210 0
-40 -139 0
-14 -139 0
-41 -140 0
-15 -140 0
-142 -206 0
-142 -211 0
-40 -143 0
-19 -143 0
-41 -144 0
-20 -144 0
-146 -206 0
-146 -212 0
-40 -147 0
-24 -147 0
-41 -148 0
-25 -148 0
-150 -206 0
-150 -213 0
-40 -152 0
-29 -152 0
-41 -154 0
-30 -154 0
-158 -207 0
-158 -208 0
-43 -159 0
-1 -159 0
-44 -160 0
-2 -160 0
-162 -207 0
-162 -209 0
-43 -163 0
-9 -163 0
-44 -164 0
-10 -164 0
-166 -207 0
-166 -210 0
-43 -167 0
-14 -167 0
-44 -168 0
-15 -168 0
-170 -207 0
-170 -211 0
-43 -171 0
-19 -171 0
-44 -172 0
-20 -172 0
-174 -207 0
-174 -212 0
-43 -175 0
-24 -175 0
-44 -176 0
-25 -176 0
-178 -207 0
-178 -213 0
-43 -180 0
-29 -180 0
-44 -182 0
-30 -182 0
-67 214 0
-69 4 0
-71 5 0
-95 204 0
-97 34 0
-99 35 0
-123 205 0
-125 37 0
-127 38 0
-151 206 0
-153 40 0
-155 41 0
-179 207 0
-181 43 0
-183 44 0
-46 4 0
-7 -46 0
-46 1 0
-47 5 0
-8 -47 0
-47 2 0
-48 6 0
-48 -186 0
-48 3 0
-50 9 0
-12 -50 0
-50 4 0
-51 10 0
-13 -51 0
-51 5 0
-52 11 0
-52 -187 0
-52 6 0
-54 14 0
-17 -54 0
-54 4 0
-55 15 0
-18 -55 0
-55 5 0
-56 16 0
-56 -188 0
-56 6 0
-58 19 0
-22 -58 0
-58 4 0
-59 20 0
-23 -59 0
-59 5 0
-60 21 0
-60 -189 0
-60 6 0
-62 24 0
-27 -62 0
-62 4 0
-63 25 0
-28 -63 0
-63 5 0
-64 26 0
-64 -190 0
-64 6 0
-66 29 0
-32 -66 0
-66 4 0
-68 30 0
-33 -68 0
-68 5 0
-70 31 0
-70 -191 0
-70 6 0
-74 34 0
-7 -74 0
-74 1 0
-75 35 0
-8 -75 0
-75 2 0
-76 36 0
-76 -186 0
-76 3 0
-78 34 0
-12 -78 0
-78 9 0
-79 35 0
-13 -79 0
-79 10 0
-80 36 0
-80 -187 0
-80 11 0
-82 34 0
-17 -82 0
-82 14 0
-83 35 0
-18 -83 0
-83 15 0
-84 36 0
-84 -188 0
-84 16 0
-86 34 0
-22 -86 0
-86 19 0
-87 35 0
-23 -87 0
-87 20 0
-88 36 0
-88 -189 0
-88 21 0
-90 34 0
-27 -90 0
-90 24 0
-91 35 0
-28 -91 0
-91 25 0
-92 36 0
-92 -190 0
-92 26 0
-94 34 0
-32 -94 0
-94 29 0
-96 35 0
-33 -96 0
-96 30 0
-98 36 0
-98 -191 0
-98 31 0
-102 37 0
-7 -102 0
-102 1 0
-103 38 0
-8 -103 0
-103 2 0
-104 39 0
-104 -186 0
-104 3 0
-106 37 0
-12 -106 0
-106 9 0
-107 38 0
-13 -107 0
-107 10 0
-108 39 0
-108 -187 0
-108 11 0
-110 37 0
-17 -110 0
-110 14 0
-111 38 0
-18 -111 0
-111 15 0
-112 39 0
-112 -188 0
-112 16 0
-114 37 0
-22 -114 0
-114 19 0
-115 38 0
-23 -115 0
-115 20 0
-116 39 0
-116 -189 0
-116 21 0
-118 37 0
-27 -118 0
-118 24 0
-119 38 0
-28 -119 0
-119 25 0
-120 39 0
-120 -190 0
-120 26 0
-122 37 0
-32 -122 0
-122 29 0
-124 38 0
-33 -124 0
-124 30 0
-126 39 0
-126 -191 0
-126 31 0
-130 40 0
-7 -130 0
-130 1 0
-131 41 0
-8 -131 0
-131 2 0
-132 42 0
-132 -186 0
-132 3 0
-134 40 0
-12 -134 0
-134 9 0
-135 41 0
-13 -135 0
-135 10 0
-136 42 0
-136 -187 0
-136 11 0
-138 40 0
-17 -138 0
-138 14 0
-139 41 0
-18 -139 0
-139 15 0
-140 42 0
-140 -188 0
-140 16 0
-142 40 0
-22 -142 0
-142 19 0
-143 41 0
-23 -143 0
-143 20 0
-144 42 0
-144 -189 0
-144 21 0
-146 40 0
-27 -146 0
-146 24 0
-147 41 0
-28 -147 0
-147 25 0
-148 42 0
-148 -190 0
-148 26 0
-150 40 0
-32 -150 0
-150 29 0
-152 41 0
-33 -152 0
-152 30 0
-154 42 0
-154 -191 0
-154 31 0
-158 43 0
-7 -158 0
-158 1 0
-159 44 0
-8 -159 0
-159 2 0
-160 45 0
-160 -186 0
-160 3 0
-162 43 0
-12 -162 0
-162 9 0
-163 44 0
-13 -163 0
-163 10 0
-164 45 0
-164 -187 0
-164 11 0
-166 43 0
-17 -166 0
-166 14 0
-167 44 0
-18 -167 0
-167 15 0
-168 45 0
-168 -188 0
-168 16 0
-170 43 0
-22 -170 0
-170 19 0
-171 44 0
-23 -171 0
-171 20 0
-172 45 0
-172 -189 0
-172 21 0
-174 43 0
-27 -174 0
-174 24 0
-175 44 0
-28 -175 0
-175 25 0
-176 45 0
-176 -190 0
-176 26 0
-178 43 0
-32 -178 0
-178 29 0
-180 44 0
-33 -180 0
-180 30 0
-182 45 0
-182 -191 0
-182 31 0
-4 -67 0
-5 -69 0
-6 -71 0
-34 -95 0
-35 -97 0
-36 -99 0
-37 -123 0
-38 -125 0
-39 -127 0
-40 -151 0
-41 -153 0
-42 -155 0
-43 -179 0
-44 -181 0
-45 -183 0
-1 46 74 102 130 158 208 0
-2 1 47 75 103 131 159 0
-3 2 48 76 104 132 160 0
-208 1 0
-1 2 0
-2 3 0
-4 46 50 54 58 62 66 214 0
-5 4 47 51 55 59 63 68 0
-6 5 48 52 56 60 64 70 0
-214 4 67 0
-4 5 69 0
-5 6 71 0
-7 203 0
-8 7 0
-186 8 0
-203 7 46 74 102 130 158 0
-7 8 47 75 103 131 159 0
-8 48 76 104 132 160 186 0
-9 50 78 106 134 162 209 0
-10 9 51 79 107 135 163 0
-11 10 52 80 108 136 164 0
-209 9 0
-9 10 0
-10 11 0
-12 198 0
-13 12 0
-187 13 0
-198 12 50 78 106 134 162 0
-12 13 51 79 107 135 163 0
-13 52 80 108 136 164 187 0
-14 54 82 110 138 166 210 0
-15 14 55 83 111 139 167 0
-16 15 56 84 112 140 168 0
-210 14 0
-14 15 0
-15 16 0
-17 199 0
-18 17 0
-188 18 0
-199 17 54 82 110 138 166 0
-17 18 55 83 111 139 167 0
-18 56 84 112 140 168 188 0
-19 58 86 114 142 170 211 0
-20 19 59 87 115 143 171 0
-21 20 60 88 116 144 172 0
-211 19 0
-19 20 0
-20 21 0
-22 200 0
-23 22 0
-189 23 0
-200 22 58 86 114 142 170 0
-22 23 59 87 115 143 171 0
-23 60 88 116 144 172 189 0
-24 62 90 118 146 174 212 0
-25 24 63 91 119 147 175 0
-26 25 64 92 120 148 176 0
-212 24 0
-24 25 0
-25 26 0
-27 201 0
-28 27 0
-190 28 0
-201 27 62 90 118 146 174 0
-27 28 63 91 119 147 175 0
-28 64 92 120 148 176 190 0
-29 66 94 122 150 178 213 0
-30 29 68 96 124 152 180 0
-31 30 70 98 126 154 182 0
-213 29 0
-29 30 0
-30 31 0
-32 202 0
-33 32 0
-191 33 0
-202 32 66 94 122 150 178 0
-32 33 68 96 124 152 180 0
-33 70 98 126 154 182 191 0
-34 74 78 82 86 90 94 204 0
-35 34 75 79 83 87 91 96 0
-36 35 76 80 84 88 92 98 0
-204 34 95 0
-34 35 97 0
-35 36 99 0
-37 102 106 110 114 118 122 205 0
-38 37 103 107 111 115 119 124 0
-39 38 104 108 112 116 120 126 0
-205 37 123 0
-37 38 125 0
-38 39 127 0
-40 130 134 138 142 146 150 206 0
-41 40 131 135 139 143 147 152 0
-42 41 132 136 140 144 148 154 0
-206 40 151 0
-40 41 153 0
-41 42 155 0
-43 158 162 166 170 174 178 207 0
-44 43 159 163 167 171 175 180 0
-45 44 160 164 168 172 176 182 0
-207 43 179 0
-43 44 181 0
-44 45 183 0
-46 -50 0
-47 -51 0
-48 -52 0
-49 -53 0
-46 -54 0
-47 -55 0
-48 -56 0
-49 -57 0
-46 -58 0
-47 -59 0
-48 -60 0
-49 -61 0
-46 -62 0
-47 -63 0
-48 -64 0
-49 -65 0
-46 -66 0
-47 -68 0
-48 -70 0
-49 -72 0
-46 -74 0
-47 -75 0
-48 -76 0
-49 -77 0
-46 -102 0
-47 -103 0
-48 -104 0
-49 -105 0
-46 -130 0
-47 -131 0
-48 -132 0
-49 -133 0
-46 -158 0
-47 -159 0
-48 -160 0
-49 -161 0
-46 -67 0
-47 -69 0
-48 -71 0
-49 -73 0
-50 -54 0
-51 -55 0
-52 -56 0
-53 -57 0
-50 -58 0
-51 -59 0
-52 -60 0
-53 -61 0
-50 -62 0
-51 -63 0
-52 -64 0
-53 -65 0
-50 -66 0
-51 -68 0
-52 -70 0
-53 -72 0
-50 -78 0
-51 -79 0
-52 -80 0
-53 -81 0
-50 -106 0
-51 -107 0
-52 -108 0
-53 -109 0
-50 -134 0
-51 -135 0
-52 -136 0
-53 -137 0
-50 -162 0
-51 -163 0
-52 -164 0
-53 -165 0
-50 -67 0
-51 -69 0
-52 -71 0
-53 -73 0
-54 -58 0
-55 -59 0
-56 -60 0
-57 -61 0
-54 -62 0
-55 -63 0
-56 -64 0
-57 -65 0
-54 -66 0
-55 -68 0
-56 -70 0
-57 -72 0
-54 -82 0
-55 -83 0
-56 -84 0
-57 -85 0
-54 -110 0
-55 -111 0
-56 -112 0
-57 -113 0
-54 -138 0
-55 -139 0
-56 -140 0
-57 -141 0
-54 -166 0
-55 -167 0
-56 -168 0
-57 -169 0
-54 -67 0
-55 -69 0
-56 -71 0
-57 -73 0
-58 -62 0
-59 -63 0
-60 -64 0
-61 -65 0
-58 -66 0
-59 -68 0
-60 -70 0
-61 -72 0
-58 -86 0
-59 -87 0
-60 -88 0
-61 -89 0
-58 -114 0
-59 -115 0
-60 -116 0
-61 -117 0
-58 -142 0
-59 -143 0
-60 -144 0
-61 -145 0
-58 -170 0
-59 -171 0
-60 -172 0
-61 -173 0
-58 -67 0
-59 -69 0
-60 -71 0
-61 -73 0
-62 -66 0
-63 -68 0
-64 -70 0
-65 -72 0
-62 -90 0
-63 -91 0
-64 -92 0
-65 -93 0
-62 -118 0
-63 -119 0
-64 -120 0
-65 -121 0
-62 -146 0
-63 -147 0
-64 -148 0
-65 -149 0
-62 -174 0
-63 -175 0
-64 -176 0
-65 -177 0
-62 -67 0
-63 -69 0
-64 -71 0
-65 -73 0
-66 -94 0
-68 -96 0
-70 -98 0
-72 -100 0
-66 -122 0
-68 -124 0
-70 -126 0
-72 -128 0
-66 -150 0
-68 -152 0
-70 -154 0
-72 -156 0
-66 -178 0
-68 -180 0
-70 -182 0
-72 -184 0
-66 -67 0
-68 -69 0
-70 -71 0
-72 -73 0
-74 -78 0
-75 -79 0
-76 -80 0
-77 -81 0
-74 -82 0
-75 -83 0
-76 -84 0
-77 -85 0
-74 -86 0
-75 -87 0
-76 -88 0
-77 -89 0
-74 -90 0
-75 -91 0
-76 -92 0
-77 -93 0
-74 -94 0
-75 -96 0
-76 -98 0
-77 -100 0
-74 -102 0
-75 -103 0
-76 -104 0
-77 -105 0
-74 -130 0
-75 -131 0
-76 -132 0
-77 -133 0
-74 -158 0
-75 -159 0
-76 -160 0
-77 -161 0
-74 -95 0
-75 -97 0
-76 -99 0
-77 -101 0
-78 -82 0
-79 -83 0
-80 -84 0
-81 -85 0
-78 -86 0
-79 -87 0
-80 -88 0
-81 -89 0
-78 -90 0
-79 -91 0
-80 -92 0
-81 -93 0
-78 -94 0
-79 -96 0
-80 -98 0
-81 -100 0
-78 -106 0
-79 -107 0
-80 -108 0
-81 -109 0
-78 -134 0
-79 -135 0
-80 -136 0
-81 -137 0
-78 -162 0
-79 -163 0
-80 -164 0
-81 -165 0
-78 -95 0
-79 -97 0
-80 -99 0
-81 -101 0
-82 -86 0
-83 -87 0
-84 -88 0
-85 -89 0
-82 -90 0
-83 -91 0
-84 -92 0
-85 -93 0
-82 -94 0
-83 -96 0
-84 -98 0
-85 -100 0
-82 -110 0
-83 -111 0
-84 -112 0
-85 -113 0
-82 -138 0
-83 -139 0
-84 -140 0
-85 -141 0
-82 -166 0
-83 -167 0
-84 -168 0
-85 -169 0
-82 -95 0
-83 -97 0
-84 -99 0
-85 -101 0
-86 -90 0
-87 -91 0
-88 -92 0
-89 -93 0
-86 -94 0
-87 -96 0
-88 -98 0
-89 -100 0
-86 -114 0
-87 -115 0
-88 -116 0
-89 -117 0
-86 -142 0
-87 -143 0
-88 -144 0
-89 -145 0
-86 -170 0
-87 -171 0
-88 -172 0
-89 -173 0
-86 -95 0
-87 -97 0
-88 -99 0
-89 -101 0
-90 -94 0
-91 -96 0
-92 -98 0
-93 -100 0
-90 -118 0
-91 -119 0
-92 -120 0
-93 -121 0
-90 -146 0
-91 -147 0
-92 -148 0
-93 -149 0
-90 -174 0
-91 -175 0
-92 -176 0
-93 -177 0
-90 -95 0
-91 -97 0
-92 -99 0
-93 -101 0
-94 -122 0
-96 -124 0
-98 -126 0
-100 -128 0
-94 -150 0
-96 -152 0
-98 -154 0
-100 -156 0
-94 -178 0
-96 -180 0
-98 -182 0
-100 -184 0
-94 -95 0
-96 -97 0
-98 -99 0
-100 -101 0
-102 -106 0
-103 -107 0
-104 -108 0
-105 -109 0
-102 -110 0
-103 -111 0
-104 -112 0
-105 -113 0
-102 -114 0
-103 -115 0
-104 -116 0
-105 -117 0
-102 -118 0
-103 -119 0
-104 -120 0
-105 -121 0
-102 -122 0
-103 -124 0
-104 -126 0
-105 -128 0
-102 -130 0
-103 -131 0
-104 -132 0
-105 -133 0
-102 -158 0
-103 -159 0
-104 -160 0
-105 -161 0
-102 -123 0
-103 -125 0
-104 -127 0
-105 -129 0
-106 -110 0
-107 -111 0
-108 -112 0
-109 -113 0
-106 -114 0
-107 -115 0
-108 -116 0
-109 -117 0
-106 -118 0
-107 -119 0
-108 -120 0
-109 -121 0
-106 -122 0
-107 -124 0
-108 -126 0
-109 -128 0
-106 -134 0
-107 -135 0
-108 -136 0
-109 -137 0
-106 -162 0
-107 -163 0
-108 -164 0
-109 -165 0
-106 -123 0
-107 -125 0
-108 -127 0
-109 -129 0
-110 -114 0
-111 -115 0
-112 -116 0
-113 -117 0
-110 -118 0
-111 -119 0
-112 -120 0
-113 -121 0
-110 -122 0
-111 -124 0
-112 -126 0
-113 -128 0
-110 -138 0
-111 -139 0
-112 -140 0
-113 -141 0
-110 -166 0
-111 -167 0
-112 -168 0
-113 -169 0
-110 -123 0
-111 -125 0
-112 -127 0
-113 -129 0
-114 -118 0
-115 -119 0
-116 -120 0
-117 -121 0
-114 -122 0
-115 -124 0
-116 -126 0
-117 -128 0
-114 -142 0
-115 -143 0
-116 -144 0
-117 -145 0
-114 -170 0
-115 -171 0
-116 -172 0
-117 -173 0
-114 -123 0
-115 -125 0
-116 -127 0
-117 -129 0
-118 -122 0
-119 -124 0
-120 -126 0
-121 -128 0
-118 -146 0
-119 -147 0
-120 -148 0
-121 -149 0
-118 -174 0
-119 -175 0
-120 -176 0
-121 -177 0
-118 -123 0
-119 -125 0
-120 -127 0
-121 -129 0
-122 -150 0
-124 -152 0
-126 -154 0
-128 -156 0
-122 -178 0
-124 -180 0
-126 -182 0
-128 -184 0
-122 -123 0
-124 -125 0
-126 -127 0
-128 -129 0
-130 -134 0
-131 -135 0
-132 -136 0
-133 -137 0
-130 -138 0
-131 -139 0
-132 -140 0
-133 -141 0
-130 -142 0
-131 -143 0
-132 -144 0
-133 -145 0
-130 -146 0
-131 -147 0
-132 -148 0
-133 -149 0
-130 -150 0
-131 -152 0
-132 -154 0
-133 -156 0
-130 -158 0
-131 -159 0
-132 -160 0
-133 -161 0
-130 -151 0
-131 -153 0
-132 -155 0
-133 -157 0
-134 -138 0
-135 -139 0
-136 -140 0
-137 -141 0
-134 -142 0
-135 -143 0
-136 -144 0
-137 -145 0
-134 -146 0
-135 -147 0
-136 -148 0
-137 -149 0
-134 -150 0
-135 -152 0
-136 -154 0
-137 -156 0
-134 -162 0
-135 -163 0
-136 -164 0
-137 -165 0
-134 -151 0
-135 -153 0
-136 -155 0
-137 -157 0
-138 -142 0
-139 -143 0
-140 -144 0
-141 -145 0
-138 -146 0
-139 -147 0
-140 -148 0
-141 -149 0
-138 -150 0
-139 -152 0
-140 -154 0
-141 -156 0
-138 -166 0
-139 -167 0
-140 -168 0
-141 -169 0
-138 -151 0
-139 -153 0
-140 -155 0
-141 -157 0
-142 -146 0
-143 -147 0
-144 -148 0
-145 -149 0
-142 -150 0
-143 -152 0
-144 -154 0
-145 -156 0
-142 -170 0
-143 -171 0
-144 -172 0
-145 -173 0
-142 -151 0
-143 -153 0
-144 -155 0
-145 -157 0
-146 -150 0
-147 -152 0
-148 -154 0
-149 -156 0
-146 -174 0
-147 -175 0
-148 -176 0
-149 -177 0
-146 -151 0
-147 -153 0
-148 -155 0
-149 -157 0
-150 -178 0
-152 -180 0
-154 -182 0
-156 -184 0
-150 -151 0
-152 -153 0
-154 -155 0
-156 -157 0
-158 -162 0
-159 -163 0
-160 -164 0
-161 -165 0
-158 -166 0
-159 -167 0
-160 -168 0
-161 -169 0
-158 -170 0
-159 -171 0
-160 -172 0
-161 -173 0
-158 -174 0
-159 -175 0
-160 -176 0
-161 -177 0
-158 -178 0
-159 -180 0
-160 -182 0
-161 -184 0
-158 -179 0
-159 -181 0
-160 -183 0
-161 -185 0
-162 -166 0
-163 -167 0
-164 -168 0
-165 -169 0
-162 -170 0
-163 -171 0
-164 -172 0
-165 -173 0
-162 -174 0
-163 -175 0
-164 -176 0
-165 -177 0
-162 -178 0
-163 -180 0
-164 -182 0
-165 -184 0
-162 -179 0
-163 -181 0
-164 -183 0
-165 -185 0
-166 -170 0
-167 -171 0
-168 -172 0
-169 -173 0
-166 -174 0
-167 -175 0
-168 -176 0
-169 -177 0
-166 -178 0
-167 -180 0
-168 -182 0
-169 -184 0
-166 -179 0
-167 -181 0
-168 -183 0
-169 -185 0
-170 -174 0
-171 -175 0
-172 -176 0
-173 -177 0
-170 -178 0
-171 -180 0
-172 -182 0
-173 -184 0
-170 -179 0
-171 -181 0
-172 -183 0
-173 -185 0
-174 -178 0
-175 -180 0
-176 -182 0
-177 -184 0
-174 -179 0
-175 -181 0
-176 -183 0
-177 -185 0
-178 -179 0
-180 -181 0
-182 -183 0
-184 -185 0
-186 0
-187 0
-188 0
-189 0
-190 0
-191 0
